(declare-fun Constructed_Argument_t () String)
(declare-fun CreateAsClass () Bool)
(declare-fun Constructed_Argument () Real)
(assert (= Constructed_Argument_t "number"))
(assert CreateAsClass)
(assert (not (= Constructed_Argument 0.0)))
(check-sat)
